p cnf 10 45
-3 1 -7 0
10 -2 8 0
10 -3 -8 0
-6 10 -4 0
-6 -7 10 0
5 -6 -4 0
5 -2 10 0
7 -9 5 0
-2 -8 -3 0
-6 -10 -9 0
-2 -8 -3 0
10 -5 -3 0
-2 -9 -3 0
-1 -6 8 0
-3 10 8 0
10 -8 -5 0
-2 -3 9 0
-3 -8 7 0
-9 -3 -8 0
-7 10 4 0
-5 -7 -3 0
9 5 -8 0
-8 -5 2 0
-2 5 -3 0
-4 -9 -7 0
10 -7 5 0
-6 2 10 0
-5 -4 6 0
10 9 1 0
9 -1 -4 0
-2 8 -5 0
-4 -8 -3 0
-6 5 -8 0
-5 -7 1 0
-6 -9 3 0
10 -6 7 0
-2 10 -8 0
8 -9 -2 0
1 -3 5 0
-3 -7 -4 0
-3 -9 -2 0
-2 -1 -9 0
-8 10 9 0
-1 7 -3 0
-3 -2 5 0
%
0